5 5
4 12 0 8 3 74 1 16 2 52
1 26 2 8 3 45 0 93 4 84
0 81 3 19 2 17 4 65 1 29
1 14 2 17 0 13 4 93 3 98
0 91 2 63 4 33 1 29 3 37
-1
0 2 3 5
0 4 5
0 3 5
0 1 3 4 5
0 2 3 5
-2
20 129 186
219 260
140 214
20 67 213 268
180 297 259

373 10
10 17 1 20 8
15 5 14 3 23
16 6 12 21 4
11 7 2 19 24
0 18 13 22 9
